Grasp exp. instance_n_20_m_10_id_2.lp tipoLifted 0 szPool 5 nIteration 100 alpha 0.4 
Academic license - for non-commercial use only
Read LP format model from file ../input/instancesGenerated/instance_n_20_m_10_id_2.lp
Reading time = 0.00 seconds
: 10 rows, 20 columns, 104 nonzeros
Optimize a model with 10 rows, 20 columns and 104 nonzeros
Variable types: 0 continuous, 20 integer (20 binary)
Coefficient statistics:
  Matrix range     [1e+00, 1e+01]
  Objective range  [1e+00, 1e+01]
  Bounds range     [1e+00, 1e+00]
  RHS range        [2e+01, 3e+01]
Found heuristic solution: objective 42.0000000

Explored 0 nodes (0 simplex iterations) in 0.00 seconds
Thread count was 1 (of 8 available processors)

Solution count 1: 42 
No other solutions better than 0

Solution limit reached
Best objective 4.200000000000e+01, best bound -, gap -
C_1:	 9.00 x_1  = 1.000000 + 8.00 x_2  = 0.000000 + 5.00 x_3  = 0.461994 + 5.00 x_7  = 0.000000 + 8.00 x_9  = 0.000000 + 2.00 x_10  = 0.891217 + 9.00 x_13  = 0.776061 + 3.00 x_15  = 0.245656 + 2.00 x_16  = 1.000000 + 7.00 x_18  = 0.499133 + 8.00 x_19  = 0.836518 <= 33.00
C_2:	 6.00 x_1  = 1.000000 + 8.00 x_2  = 0.000000 + 1.00 x_4  = 1.000000 + 10.00 x_5  = 0.199131 + 8.00 x_6  = 0.000000 + 5.00 x_8  = 1.000000 + 2.00 x_12  = 0.000000 + 2.00 x_13  = 0.776061 + 10.00 x_15  = 0.245656 + 10.00 x_16  = 1.000000 + 4.00 x_17  = 1.000000 + 2.00 x_20  = 1.000000 <= 34.00
C_3:	 3.00 x_1  = 1.000000 + 4.00 x_2  = 0.000000 + 3.00 x_3  = 0.461994 + 3.00 x_4  = 1.000000 + 4.00 x_5  = 0.199131 + 8.00 x_7  = 0.000000 + 10.00 x_8  = 1.000000 + 9.00 x_9  = 0.000000 + 1.00 x_10  = 0.891217 + 1.00 x_12  = 0.000000 + 1.00 x_14  = 1.000000 + 1.00 x_18  = 0.499133 + 5.00 x_20  = 1.000000 <= 26.00
C_4:	 6.00 x_4  = 1.000000 + 9.00 x_6  = 0.000000 + 6.00 x_7  = 0.000000 + 5.00 x_9  = 0.000000 + 1.00 x_10  = 0.891217 + 10.00 x_12  = 0.000000 + 8.00 x_15  = 0.245656 + 8.00 x_19  = 0.836518 <= 26.00
C_5:	 6.00 x_6  = 0.000000 + 10.00 x_7  = 0.000000 + 7.00 x_11  = 1.000000 + 6.00 x_14  = 1.000000 + 4.00 x_15  = 0.245656 + 2.00 x_18  = 0.499133 + 6.00 x_19  = 0.836518 <= 20.00
C_6:	 7.00 x_3  = 0.461994 + 1.00 x_5  = 0.199131 + 8.00 x_6  = 0.000000 + 2.00 x_7  = 0.000000 + 3.00 x_9  = 0.000000 + 6.00 x_10  = 0.891217 + 4.00 x_14  = 1.000000 + 5.00 x_15  = 0.245656 + 8.00 x_16  = 1.000000 + 10.00 x_18  = 0.499133 <= 27.00
C_7:	 6.00 x_1  = 1.000000 + 4.00 x_3  = 0.461994 + 9.00 x_4  = 1.000000 + 6.00 x_6  = 0.000000 + 10.00 x_7  = 0.000000 + 4.00 x_9  = 0.000000 + 5.00 x_12  = 0.000000 + 7.00 x_13  = 0.776061 + 6.00 x_14  = 1.000000 + 7.00 x_15  = 0.245656 + 2.00 x_16  = 1.000000 + 2.00 x_20  = 1.000000 <= 34.00
C_8:	 4.00 x_1  = 1.000000 + 8.00 x_2  = 0.000000 + 2.00 x_4  = 1.000000 + 8.00 x_6  = 0.000000 + 8.00 x_7  = 0.000000 + 9.00 x_9  = 0.000000 + 1.00 x_10  = 0.891217 + 2.00 x_15  = 0.245656 + 6.00 x_17  = 1.000000 + 5.00 x_18  = 0.499133 + 10.00 x_19  = 0.836518 <= 31.00
C_9:	 3.00 x_1  = 1.000000 + 3.00 x_4  = 1.000000 + 10.00 x_5  = 0.199131 + 4.00 x_6  = 0.000000 + 6.00 x_7  = 0.000000 + 1.00 x_8  = 1.000000 + 1.00 x_11  = 1.000000 + 10.00 x_12  = 0.000000 + 2.00 x_14  = 1.000000 + 7.00 x_16  = 1.000000 + 1.00 x_18  = 0.499133 + 3.00 x_19  = 0.836518 + 6.00 x_20  = 1.000000 <= 28.00
C_10:	 3.00 x_5  = 0.199131 + 7.00 x_8  = 1.000000 + 7.00 x_9  = 0.000000 + 4.00 x_10  = 0.891217 + 6.00 x_12  = 0.000000 + 3.00 x_13  = 0.776061 + 3.00 x_19  = 0.836518 <= 16.00
Solution initial: 73.848370 
Number Constraints Used in Cover:10
GRASP Method!
Number cuts repeat: 0
value: 73.848370
Number Constraints Used in Cover:19
GRASP Method!
Number cuts repeat: 0
value: 73.848370
Number Constraints Used in Cover:27
GRASP Method!
Number cuts repeat: 0
value: 73.848370
Number Constraints Used in Cover:39
GRASP Method!
Number cuts repeat: 0
value: 73.848370
Number Constraints Used in Cover:44
GRASP Method!
Number cuts repeat: 0
value: 73.848370
Number Constraints Used in Cover:51
GRASP Method!
Number cuts repeat: 0
value: 73.848370
Number Constraints Used in Cover:54
GRASP Method!
Number cuts repeat: 0
value: 73.848370
Number Constraints Used in Cover:56
GRASP Method!
Number cuts repeat: 0
value: 73.848370
Number Constraints Used in Cover:60
GRASP Method!
Number cuts repeat: 0
value: 73.848370
Number Constraints Used in Cover:63
GRASP Method!
Number cuts repeat: 0
value: 73.848370
Number Constraints Used in Cover:69
GRASP Method!
Number cuts repeat: 0
value: 73.848370
Number Constraints Used in Cover:73
GRASP Method!
Number cuts repeat: 0
value: 73.848370
Number Constraints Used in Cover:78
GRASP Method!
Number cuts repeat: 0
value: 73.848370
Number Constraints Used in Cover:88
GRASP Method!
Number cuts repeat: 0
value: 73.848055
Number Constraints Used in Cover:91
GRASP Method!
Number cuts repeat: 0
value: 73.848055
Number Constraints Used in Cover:95
GRASP Method!
Number cuts repeat: 0
value: 73.848055
Number Constraints Used in Cover:102
GRASP Method!
Number cuts repeat: 0
value: 73.848055
Number Constraints Used in Cover:109
GRASP Method!
Number cuts repeat: 0
value: 73.848055
Number Constraints Used in Cover:124
GRASP Method!
Number cuts repeat: 0
value: 73.848055
Number Constraints Used in Cover:140
GRASP Method!
Number cuts repeat: 0
value: 73.848055
Number Constraints Used in Cover:164
GRASP Method!
Number cuts repeat: 0
value: 73.848055
Number Constraints Used in Cover:188
GRASP Method!
Number cuts repeat: 0
value: 73.848055
Number Constraints Used in Cover:204
GRASP Method!
Number cuts repeat: 0
value: 73.848055
Number Constraints Used in Cover:221
GRASP Method!
Number cuts repeat: 0
value: 73.848055
Number Constraints Used in Cover:241
GRASP Method!
Number cuts repeat: 0
value: 73.848055
Number Constraints Used in Cover:268
GRASP Method!
Number cuts repeat: 0
value: 73.848055
Number Constraints Used in Cover:290
GRASP Method!
Number cuts repeat: 0
value: 73.848055
Number Constraints Used in Cover:318
GRASP Method!
Number cuts repeat: 0
value: 73.848055
Number Constraints Used in Cover:340
GRASP Method!
Number cuts repeat: 0
value: 73.848055
Number Constraints Used in Cover:354
GRASP Method!
Number cuts repeat: 0
value: 73.848055
Number Constraints Used in Cover:365
GRASP Method!
Number cuts repeat: 0
value: 73.848055
Number Constraints Used in Cover:378
GRASP Method!
Number cuts repeat: 0
value: 73.848055
Number Constraints Used in Cover:399
GRASP Method!
Number cuts repeat: 0
value: 73.848055
Number Constraints Used in Cover:411
GRASP Method!
Number cuts repeat: 0
value: 73.848055
Number Constraints Used in Cover:426
GRASP Method!
Number cuts repeat: 0
value: 73.848055
Number Constraints Used in Cover:437
GRASP Method!
Number cuts repeat: 0
value: 73.848055
Number Constraints Used in Cover:448
GRASP Method!
Number cuts repeat: 0
value: 73.848055
Number Constraints Used in Cover:457
GRASP Method!
Number cuts repeat: 0
value: 73.848055
Number Constraints Used in Cover:471
GRASP Method!
Number cuts repeat: 0
value: 73.848055
Number Constraints Used in Cover:486
GRASP Method!
Number cuts repeat: 0
value: 73.848055
Number Constraints Used in Cover:504
GRASP Method!
Number cuts repeat: 0
value: 73.848055
Number Constraints Used in Cover:518
GRASP Method!
Number cuts repeat: 0
value: 73.848055
Number Constraints Used in Cover:531
GRASP Method!
Number cuts repeat: 0
value: 73.848055
Number Constraints Used in Cover:548
GRASP Method!
Number cuts repeat: 0
value: 73.848055
Number Constraints Used in Cover:560
GRASP Method!
Number cuts repeat: 0
value: 73.848055
Number Constraints Used in Cover:575
GRASP Method!
Number cuts repeat: 0
value: 73.848055
Number Constraints Used in Cover:584
GRASP Method!
Number cuts repeat: 0
value: 73.848055
Number Constraints Used in Cover:598
GRASP Method!
Number cuts repeat: 0
value: 73.848055
Number Constraints Used in Cover:608
GRASP Method!
Number cuts repeat: 0
value: 73.848055
Number Constraints Used in Cover:621
GRASP Method!
Number cuts repeat: 0
value: 73.848055
Number Constraints Used in Cover:631
GRASP Method!
Number cuts repeat: 0
value: 73.848055
Number Constraints Used in Cover:639
GRASP Method!
Number cuts repeat: 0
value: 73.848055
Number Constraints Used in Cover:641
GRASP Method!
Number cuts repeat: 0
value: 73.848055
Number Constraints Used in Cover:650
GRASP Method!
Number cuts repeat: 0
value: 73.848055
Number Constraints Used in Cover:659
GRASP Method!
Number cuts repeat: 0
value: 73.848055
Number Constraints Used in Cover:663
GRASP Method!
Number cuts repeat: 0
value: 73.848055
Number Constraints Used in Cover:674
GRASP Method!
Number cuts repeat: 0
value: 73.848055
Number Constraints Used in Cover:679
GRASP Method!
Number cuts repeat: 0
value: 73.848055
Number Constraints Used in Cover:687
GRASP Method!
Number cuts repeat: 0
value: 73.848055
Number Constraints Used in Cover:694
GRASP Method!
Number cuts repeat: 0
value: 73.848055
Number Constraints Used in Cover:697
GRASP Method!
Number cuts repeat: 0
value: 73.848055
Number Constraints Used in Cover:704
GRASP Method!
Number cuts repeat: 0
value: 73.848055
Number Constraints Used in Cover:706
GRASP Method!
Number cuts repeat: 0
value: 73.848055
Number Constraints Used in Cover:714
GRASP Method!
Number cuts repeat: 0
value: 73.848055
Number Constraints Used in Cover:722
GRASP Method!
Number cuts repeat: 0
value: 73.848055
Number Constraints Used in Cover:736
GRASP Method!
Number cuts repeat: 0
value: 73.848055
Number Constraints Used in Cover:749
GRASP Method!
Number cuts repeat: 0
value: 73.848055
Number Constraints Used in Cover:765
GRASP Method!
Number cuts repeat: 0
value: 73.848055
Number Constraints Used in Cover:779
GRASP Method!
Number cuts repeat: 0
value: 73.848055
Number Constraints Used in Cover:796
GRASP Method!
Number cuts repeat: 0
value: 73.848055
Number Constraints Used in Cover:807
GRASP Method!
Number cuts repeat: 0
value: 73.848055
Number Constraints Used in Cover:815
GRASP Method!
Number cuts repeat: 0
value: 73.848055
Number Constraints Used in Cover:825
GRASP Method!
Number cuts repeat: 0
value: 73.848055
Number Cuts Final: 830
